language ESSENCE' 1.0
$ Generated from file data/MMLIB50/J5072_2.mm
$ Best heuristic solution: makespan = 30, combo = serial/LFT/LST/earliest_start/shortest_duration
$ activity,mode,start (1-based indexing)
$ 1,1,0
$ 2,1,0
$ 3,1,0
$ 4,1,0
$ 5,1,0
$ 6,1,0
$ 7,1,0
$ 8,1,2
$ 9,1,2
$ 10,1,5
$ 11,1,8
$ 12,3,0
$ 13,1,0
$ 14,3,0
$ 15,1,2
$ 16,1,1
$ 17,1,3
$ 18,2,3
$ 19,1,3
$ 20,1,9
$ 21,1,8
$ 22,1,4
$ 23,1,5
$ 24,3,5
$ 25,1,10
$ 26,1,10
$ 27,1,8
$ 28,1,10
$ 29,1,17
$ 30,1,10
$ 31,3,9
$ 32,1,11
$ 33,1,11
$ 34,1,17
$ 35,1,19
$ 36,3,17
$ 37,1,18
$ 38,1,18
$ 39,3,11
$ 40,1,12
$ 41,1,11
$ 42,1,20
$ 43,1,27
$ 44,1,27
$ 45,1,22
$ 46,1,22
$ 47,1,22
$ 48,1,19
$ 49,3,18
$ 50,1,18
$ 51,1,17
$ 52,1,30
letting jobs = 52
letting horizon = 29
letting resourcesRenew = 2
letting resourcesNonrenew = 2
letting successors = [[2, 3, 4, 5, 6, 7, 12, 13, 14, 15, 16], [33, 30, 28, 27, 24, 23, 22, 21, 19, 17, 10], [33, 31, 27, 21, 20, 19, 9], [24, 21, 19, 10, 9], [31, 20, 19, 18, 8], [33, 30, 28, 22, 10], [30, 28, 24, 23, 10], [33, 29, 27, 21, 11], [23, 17, 11], [41, 40, 32, 31, 26, 25, 20], [51, 40, 34, 32, 30, 28, 26, 25], [39, 31, 30, 28, 25, 20], [51, 50, 40, 39, 38, 37, 34, 32, 30, 29, 28], [51, 50, 41, 40, 33, 32, 30, 29, 26], [50, 41, 40, 39, 38, 32, 30, 20], [50, 34, 30, 27, 21], [51, 50, 49, 41, 40, 35, 34, 26], [50, 40, 39, 38, 37, 34, 32, 28], [51, 40, 39, 36, 35, 34, 25], [51, 49, 37, 36, 34, 29], [51, 49, 41, 39, 38, 37, 35], [49, 48, 40, 38, 37, 36, 35], [49, 48, 40, 39, 37, 36, 32], [50, 47, 41, 39, 37, 36, 35], [50, 49, 48, 43, 42, 38, 37], [48, 39, 38, 37, 36], [51, 48, 40, 38, 36], [49, 46, 41, 36, 35], [48, 47, 45, 35], [49, 46, 45, 36], [45, 44, 43, 38], [46, 45, 43, 42], [46, 45, 44, 43], [48, 47, 46], [43, 42], [44, 43], [46, 45], [47, 46], [44, 43], [46, 45], [45, 43], [44], [52], [52], [52], [52], [52], [52], [52], [52], [52], []]
letting durations = [[0], [3, 3, 8], [2, 3, 10], [1, 6, 9], [2, 3, 10], [1, 3, 9], [5, 6, 10], [6, 7, 10], [1, 2, 3], [4, 6, 7], [2, 4, 5], [6, 7, 9], [6, 9, 10], [1, 3, 10], [1, 5, 10], [6, 7, 9], [1, 2, 9], [4, 5, 7], [2, 9, 10], [8, 9, 10], [3, 5, 9], [3, 5, 8], [4, 5, 8], [1, 2, 5], [8, 9, 10], [1, 4, 9], [4, 7, 9], [1, 7, 9], [2, 5, 7], [4, 7, 8], [5, 6, 8], [4, 8, 9], [1, 8, 9], [1, 2, 5], [1, 2, 6], [4, 6, 10], [4, 5, 6], [4, 6, 7], [4, 7, 9], [1, 6, 10], [3, 7, 8], [5, 6, 9], [1, 4, 6], [2, 3, 4], [4, 5, 7], [8, 9, 10], [1, 2, 7], [5, 6, 7], [2, 4, 8], [8, 9, 10], [1, 3, 4], [0]]
letting resourceUsage = [[[0, 0, 0, 0]], [[9, 4, 7, 1], [8, 3, 7, 2], [8, 3, 7, 1]], [[8, 7, 6, 7], [7, 7, 5, 6], [7, 7, 5, 4]], [[4, 7, 9, 8], [3, 5, 6, 8], [3, 3, 6, 6]], [[8, 9, 6, 3], [7, 8, 3, 3], [7, 7, 2, 2]], [[6, 5, 5, 8], [5, 3, 2, 8], [5, 3, 1, 8]], [[7, 7, 8, 9], [6, 7, 7, 6], [6, 6, 6, 6]], [[6, 5, 9, 9], [5, 3, 8, 8], [5, 1, 8, 7]], [[6, 8, 6, 6], [6, 7, 3, 6], [6, 6, 1, 5]], [[7, 7, 10, 5], [6, 7, 8, 3], [3, 4, 6, 2]], [[6, 7, 4, 7], [6, 7, 3, 6], [3, 3, 3, 6]], [[3, 3, 9, 7], [2, 2, 5, 4], [2, 2, 2, 2]], [[5, 3, 7, 10], [4, 2, 6, 10], [3, 2, 4, 10]], [[8, 3, 6, 9], [6, 3, 5, 8], [4, 2, 4, 8]], [[6, 7, 3, 5], [4, 7, 3, 5], [4, 6, 3, 5]], [[8, 10, 5, 4], [5, 9, 5, 2], [1, 9, 4, 2]], [[8, 6, 6, 6], [5, 5, 6, 6], [3, 3, 4, 6]], [[5, 10, 6, 4], [3, 6, 5, 3], [3, 4, 5, 2]], [[4, 3, 9, 8], [4, 3, 8, 6], [4, 1, 8, 6]], [[1, 4, 8, 6], [1, 4, 7, 6], [1, 4, 7, 5]], [[9, 6, 9, 8], [7, 6, 9, 8], [2, 6, 9, 7]], [[7, 8, 8, 3], [6, 8, 8, 3], [5, 7, 7, 3]], [[5, 6, 6, 5], [3, 4, 5, 4], [2, 4, 3, 1]], [[8, 9, 7, 7], [8, 7, 4, 4], [8, 1, 3, 2]], [[6, 9, 6, 9], [5, 9, 5, 8], [4, 9, 4, 6]], [[2, 5, 6, 7], [1, 5, 4, 6], [1, 5, 2, 4]], [[8, 8, 8, 4], [7, 8, 6, 2], [6, 7, 5, 2]], [[6, 6, 10, 7], [6, 6, 6, 5], [5, 6, 6, 1]], [[10, 5, 7, 9], [9, 5, 5, 9], [9, 4, 5, 7]], [[6, 7, 5, 10], [5, 5, 3, 9], [5, 4, 3, 7]], [[4, 10, 5, 7], [3, 6, 3, 4], [1, 5, 1, 1]], [[6, 2, 7, 2], [4, 1, 6, 2], [4, 1, 4, 2]], [[6, 5, 7, 3], [6, 4, 7, 3], [6, 3, 4, 3]], [[3, 6, 9, 7], [3, 5, 6, 6], [3, 1, 4, 6]], [[6, 10, 7, 6], [4, 6, 7, 5], [4, 2, 4, 5]], [[7, 6, 10, 6], [5, 5, 7, 5], [5, 4, 4, 4]], [[7, 7, 4, 8], [6, 3, 3, 7], [6, 2, 2, 5]], [[10, 4, 10, 5], [9, 3, 8, 5], [9, 3, 7, 5]], [[7, 8, 8, 6], [6, 7, 7, 4], [1, 4, 3, 3]], [[6, 7, 7, 7], [4, 6, 6, 6], [4, 4, 5, 2]], [[9, 6, 7, 7], [9, 3, 7, 4], [9, 1, 4, 1]], [[5, 1, 6, 2], [4, 1, 4, 1], [3, 1, 3, 1]], [[9, 6, 3, 8], [7, 4, 3, 7], [7, 4, 3, 6]], [[7, 7, 6, 4], [7, 6, 6, 3], [7, 4, 4, 2]], [[7, 8, 2, 5], [7, 7, 1, 5], [6, 7, 1, 4]], [[5, 6, 7, 6], [3, 6, 6, 5], [3, 6, 5, 4]], [[6, 9, 6, 5], [4, 9, 5, 4], [2, 9, 4, 3]], [[3, 8, 3, 1], [2, 8, 2, 1], [2, 6, 2, 1]], [[9, 6, 5, 9], [6, 5, 4, 7], [5, 3, 3, 7]], [[3, 8, 10, 5], [3, 8, 9, 5], [2, 8, 9, 5]], [[5, 6, 5, 6], [4, 6, 5, 6], [4, 6, 5, 5]], [[0, 0, 0, 0]]]
letting resourceLimits = [56, 51, 304, 282]
